COLUMNS

passenger_count
pickup_ID
dropoff_ID
request_time_sec
pickup_district
dropoff_district
LDuals
IDuals
vehicle_ID
pick_position
drop_position

REQUESTS_INFO
1      781       671       31285     291       280       178       178       9         1         2         
1      432       213       31265     52        266       184       184       29        1         2         
1      1098      1097      31284     84        84        261       261       65        1         3         
3      1025      1004      31099     291       291       469       469       75        1         2         
3      522       117       31256     52        286       159       159       76        1         2         
2      1219      1356      31288     84        129       195       195       80        1         2         
1      452       694       31275     52        189       140       140       87        1         2         
1      1419      1529      31252     129       296       154       154       100       1         2         
1      285       416       31282     299       100       108       108       105       1         4         
2      937       947       31268     291       290       234       234       111       1         4         
2      959       873       31264     291       291       268       268       111       2         3         
2      959       1209      31187     291       192       264       264       176       1         4         
1      959       1208      31180     291       192       368       368       176       2         3         
1      1148      958       31288     291       291       165       165       192       1         2         
2      295       421       31257     87        168       191       191       206       1         2         
1      183       155       31283     178       286       183       183       222       1         3         
1      771       727       31265     290       290       144       144       255       1         2         
3      1091      894       31265     291       291       289       289       279       1         2         
2      1160      266       31264     84        266       152       152       319       1         3         
1      860       627       31280     290       189       180       180       322       1         4         
2      861       747       31270     290       290       213       213       322       2         3         
1      314       458       31277     119       52        176       176       326       1         2         
4      479       394       31267     52        100       186       186       328       1         2         
1      312       460       31277     87        189       134.5     134.5     340       1         2         
1      795       484       31210     290       189       244       244       354       1         2         
1      924       578       31269     290       189       182       182       364       1         4         
1      884       627       31262     290       189       207       207       367       1         4         
1      328       117       31238     299       286       185       185       373       1         2         
2      1004      485       31159     291       189       422       422       385       1         2         
2      333       272       31259     119       127       182       182       388       1         2         
1      778       835       31238     131       290       202       202       429       1         2         
3      881       415       31193     290       100       287       287       432       1         2         
1      980       760       31214     291       291       306       306       460       1         3         
3      413       484       31277     52        189       136       136       462       1         2         
3      842       583       31245     290       189       255       255       474       1         2         
1      814       670       31277     290       280       144       144       483       1         3         
1      958       719       31243     291       189       272       272       488       1         4         
1      992       652       31212     290       189       305       305       490       1         2         
1      1002      1065      31276     291       291       244       244       491       1         3         
1      906       626       31171     290       189       338       338       494       1         2         
1      387       289       31282     299       127       188       188       496       1         2         
1      1109      1068      31274     291       291       188       188       523       1         2         
1      969       838       31071     290       290       409       409       568       1         4         
3      1068      871       31254     291       291       293       293       572       1         2         
2      1023      1244      31278     291       192       221       221       579       1         4         
1      1044      1148      31226     291       291       302       302       579       2         3         
2      961       896       31112     291       291       450       450       598       1         2         
1      795       295       31187     290       87        257       257       599       1         5         
1      782       743       31249     291       290       206       206       613       1         2         
2      1044      1248      31185     291       129       281       281       643       1         4         
3      864       905       31241     290       290       231       231       685       1         2         
1      715       544       31289     131       52        93        93        686       1         3         
1      839       512       31283     290       199       205       205       707       1         2         
2      522       117       31256     52        286       159       159       792       1         2         
3      873       709       31256     291       131       241       241       802       1         2         
2      198       555       31253     178       199       174       174       803       1         3         
2      780       640       31276     291       131       175       175       814       1         3         
1      905       1045      31260     290       291       180       180       830       1         3         
3      873       709       31256     291       131       241       241       834       1         2         
2      621       693       31279     280       280       118       118       840       1         2         
1      1106      1187      31268     291       291       196       196       846       1         2         
1      874       602       31246     291       189       213       213       873       1         4         
1      252       625       31269     206       189       147       147       898       1         2         
1      410       483       31235     52        189       173       173       903       1         3         
1      1107      718       31141     291       189       333       333       943       1         3         
1      545       676       31276     52        189       184       184       959       1         2         
1      970       693       31277     290       280       199       199       996       1         4         
1      1055      1010      31248     84        290       249       249       1019      1         2         
3      1025      676       31081     291       189       473       473       1027      1         2         
3      1091      894       31265     291       291       289       289       1050      1         2         
1      770       46        31272     290       98        147       147       1070      1         4         
1      910       674       31225     290       189       260       260       1072      1         3         
2      791       1011      31261     290       84        173       173       1074      1         3         
1      791       897       31267     290       291       167       167       1074      2         4         
1      736       64        31288     131       98        167       167       1096      1         3         
1      835       670       31266     290       280       120       120       1111      1         4         
3      881       415       31193     290       100       287       287       1125      1         2         
3      946       937       31171     290       291       315       315       1127      1         2         
1      368       604       31280     299       189       183       183       1143      1         2         
1      915       719       31155     291       189       329       329       1163      1         4         
3      961       896       31112     291       291       450       450       1163      2         3         
1      418       671       31283     168       280       106       106       1168      1         2         
3      993       961       30978     84        291       525       525       1177      1         2         
2      655       535       31272     189       189       118       118       1178      1         2         
3      525       397       31236     52        168       200       200       1193      1         2         
1      556       552       31267     199       189       117       117       1197      1         2         
1      874       545       31281     291       52        167       167       1201      1         2         
1      923       652       31263     290       189       217       217       1207      1         2         
4      816       910       31122     290       290       321       321       1209      1         2         
1      417       556       31289     100       199       88        88        1210      1         3         
2      818       10        31232     290       98        244       244       1232      1         4         
2      842       583       31245     290       189       255       255       1232      2         3         
1      527       416       31274     52        100       128       128       1234      1         3         
1      903       627       31162     290       189       303       303       1235      1         3         
1      903       680       31288     290       290       162       162       1235      2         4         
1      949       512       31199     290       199       288       288       1263      1         2         
1      568       528       31214     52        52        173       173       1288      1         2         
1      982       652       31276     291       189       169       169       1295      1         5         
1      717       651       31280     189       189       129       129       1296      1         2         
1      1044      760       31228     291       291       300       300       1340      1         2         
1      759       544       31285     131       52        175       175       1347      1         2         
1      925       940       31255     290       291       228       228       1359      1         2         
1      827       717       31260     291       189       196       196       1365      1         2         
3      780       640       31276     291       131       175       175       1382      1         2         
3      940       979       31213     291       291       358       358       1408      1         2         
1      915       698       31225     291       189       215       215       1435      1         5         
3      478       555       31280     52        199       138       138       1447      1         2         
1      1109      1181      31184     291       84        375       375       1451      1         2         
3      1004      485       31159     291       189       422       422       1452      1         2         
2      1068      871       31254     291       291       293       293       1456      1         2         
1      927       1218      31252     290       84        199       199       1459      1         2         
1      198       535       31273     178       189       144       144       1460      1         2         
1      253       431       31266     206       52        116       116       1462      1         3         
3      816       885       31258     290       290       182       182       1464      1         3         
1      928       1043      31034     290       291       487       487       1476      1         2         
1      717       579       31281     189       189       128       128       1479      1         2         
3      791       602       31290     290       189       0         0         0         0         0         
3      791       602       31290     290       189       0         0         0         0         0         
1      387       556       31290     299       199       0         0         0         0         0         
1      908       35        31290     290       98        0         0         0         0         0         
1      194       460       31290     207       189       0         0         0         0         0         
1      374       697       31290     119       189       0         0         0         0         0         
1      1128      1026      31290     291       291       0         0         0         0         0         
1      597       675       31291     131       189       0         0         0         0         0         
2      609       575       31291     189       189       0         0         0         0         0         
3      968       674       31291     290       189       0         0         0         0         0         
1      354       116       31291     119       9         0         0         0         0         0         
1      632       674       31291     189       189       0         0         0         0         0         
2      968       674       31291     290       189       0         0         0         0         0         
2      812       504       31292     290       52        0         0         0         0         0         
1      116       600       31292     9         280       0         0         0         0         0         
3      812       504       31292     290       52        0         0         0         0         0         
1      926       1011      31292     290       84        0         0         0         0         0         
1      663       579       31292     131       189       0         0         0         0         0         
1      937       724       31292     291       290       0         0         0         0         0         
1      1090      873       31292     291       291       0         0         0         0         0         
1      255       572       31293     87        131       0         0         0         0         0         
1      304       482       31293     299       189       0         0         0         0         0         
1      328       576       31293     299       189       0         0         0         0         0         
1      860       721       31293     290       290       0         0         0         0         0         
3      747       699       31293     290       290       0         0         0         0         0         
1      512       626       31294     199       189       0         0         0         0         0         
1      350       521       31294     127       52        0         0         0         0         0         
1      416       649       31294     100       189       0         0         0         0         0         
1      200       247       31294     87        266       0         0         0         0         0         
1      980       647       31294     291       280       0         0         0         0         0         
1      710       291       31295     131       87        0         0         0         0         0         
1      370       389       31295     52        299       0         0         0         0         0         
2      667       597       31296     131       131       0         0         0         0         0         
1      1106      719       31296     291       189       0         0         0         0         0         
1      437       367       31296     100       299       0         0         0         0         0         
1      355       387       31296     119       299       0         0         0         0         0         
1      739       534       31296     189       199       0         0         0         0         0         
1      20        208       31296     98        286       0         0         0         0         0         
1      605       745       31296     189       290       0         0         0         0         0         
3      667       597       31296     131       131       0         0         0         0         0         
1      559       507       31297     189       189       0         0         0         0         0         
1      794       352       31297     290       119       0         0         0         0         0         
1      656       652       31297     290       189       0         0         0         0         0         
1      443       836       31297     168       290       0         0         0         0         0         
1      155       577       31297     286       189       0         0         0         0         0         
1      332       727       31298     87        290       0         0         0         0         0         
2      959       139       31298     291       57        0         0         0         0         0         
1      389       459       31298     299       189       0         0         0         0         0         
1      484       393       31298     189       52        0         0         0         0         0         
1      1268      632       31298     129       189       0         0         0         0         0         
1      549       928       31298     52        290       0         0         0         0         0         
1      834       692       31298     290       280       0         0         0         0         0         
1      574       511       31298     189       199       0         0         0         0         0         
1      291       212       31298     87        266       0         0         0         0         0         
1      465       10        31298     199       98        0         0         0         0         0         
3      959       139       31298     291       57        0         0         0         0         0         
2      126       182       31298     178       178       0         0         0         0         0         
3      126       182       31298     178       178       0         0         0         0         0         
3      816       881       31299     290       290       0         0         0         0         0         
3      816       881       31299     290       290       0         0         0         0         0         
2      812       675       31299     290       189       0         0         0         0         0         
3      812       675       31299     290       189       0         0         0         0         0         
1      1002      757       31299     291       131       0         0         0         0         0         
1      580       553       31299     189       189       0         0         0         0         0         
1      758       535       31299     131       189       0         0         0         0         0         
1      628       1032      31300     189       84        0         0         0         0         0         
1      579       171       31300     189       286       0         0         0         0         0         
1      858       527       31300     290       52        0         0         0         0         0         
1      452       719       31300     52        189       0         0         0         0         0         
1      888       674       31300     290       189       0         0         0         0         0         
1      549       719       31300     52        189       0         0         0         0         0         
1      653       600       31300     189       280       0         0         0         0         0         
1      725       673       31300     290       189       0         0         0         0         0         
1      948       670       31301     290       280       0         0         0         0         0         
2      534       577       31301     199       189       0         0         0         0         0         
1      582       417       31301     189       100       0         0         0         0         0         
1      766       47        31301     290       98        0         0         0         0         0         
2      711       640       31301     131       131       0         0         0         0         0         
1      907       482       31301     290       189       0         0         0         0         0         
1      888       925       31301     290       290       0         0         0         0         0         
1      485       698       31301     189       189       0         0         0         0         0         
3      802       698       31301     291       189       0         0         0         0         0         
2      802       698       31301     291       189       0         0         0         0         0         
3      887       835       31301     290       290       0         0         0         0         0         
2      887       835       31301     290       290       0         0         0         0         0         
1      457       881       31302     52        290       0         0         0         0         0         
2      163       168       31303     178       178       0         0         0         0         0         
2      1167      897       31303     291       291       0         0         0         0         0         
1      1158      1053      31303     84        84        0         0         0         0         0         
1      983       791       31303     291       290       0         0         0         0         0         
1      605       646       31303     189       280       0         0         0         0         0         
1      336       372       31303     277       119       0         0         0         0         0         
2      884       864       31303     290       290       0         0         0         0         0         
3      884       864       31303     290       290       0         0         0         0         0         
2      395       157       31304     100       54        0         0         0         0         0         
1      778       717       31304     131       189       0         0         0         0         0         
1      886       905       31304     290       290       0         0         0         0         0         
1      722       606       31305     290       189       0         0         0         0         0         
1      817       558       31305     290       189       0         0         0         0         0         
1      886       1032      31305     290       84        0         0         0         0         0         
1      386       435       31306     299       52        0         0         0         0         0         
3      183       535       31306     178       189       0         0         0         0         0         
2      183       535       31306     178       189       0         0         0         0         0         
1      1001      393       31306     291       52        0         0         0         0         0         
1      489       411       31306     199       52        0         0         0         0         0         
1      834       946       31306     290       290       0         0         0         0         0         
2      871       737       31306     291       189       0         0         0         0         0         
1      646       551       31306     280       189       0         0         0         0         0         
1      557       459       31306     189       189       0         0         0         0         0         
1      441       624       31307     168       189       0         0         0         0         0         
2      767       675       31307     290       189       0         0         0         0         0         
1      374       506       31307     119       189       0         0         0         0         0         
1      272       437       31307     127       100       0         0         0         0         0         
1      488       873       31307     199       291       0         0         0         0         0         
3      693       373       31307     280       119       0         0         0         0         0         
2      693       373       31307     280       119       0         0         0         0         0         
1      788       441       31308     290       168       0         0         0         0         0         
1      475       209       31308     52        266       0         0         0         0         0         
1      311       415       31308     87        100       0         0         0         0         0         
3      526       510       31308     52        199       0         0         0         0         0         
2      526       510       31308     52        199       0         0         0         0         0         
1      835       605       31308     290       189       0         0         0         0         0         
1      604       698       31309     189       189       0         0         0         0         0         
1      304       697       31309     299       189       0         0         0         0         0         
1      923       970       31309     290       290       0         0         0         0         0         
1      1132      760       31309     291       291       0         0         0         0         0         
3      421       581       31310     168       189       0         0         0         0         0         
3      421       581       31310     168       189       0         0         0         0         0         
2      529       393       31310     189       52        0         0         0         0         0         
1      700       421       31310     290       168       0         0         0         0         0         
1      458       556       31311     52        199       0         0         0         0         0         
2      907       814       31312     290       290       0         0         0         0         0         
1      643       416       31312     131       100       0         0         0         0         0         
1      328       458       31312     299       52        0         0         0         0         0         
1      510       557       31312     199       189       0         0         0         0         0         
2      410       598       31312     52        189       0         0         0         0         0         
3      410       598       31312     52        189       0         0         0         0         0         
1      307       98        31312     127       98        0         0         0         0         0         
1      545       395       31313     52        100       0         0         0         0         0         
1      482       31        31313     189       9         0         0         0         0         0         
1      839       464       31313     290       168       0         0         0         0         0         
2      913       571       31313     291       52        0         0         0         0         0         
1      345       736       31314     299       131       0         0         0         0         0         
1      884       871       31314     290       291       0         0         0         0         0         
1      441       504       31314     168       52        0         0         0         0         0         
1      603       410       31314     189       52        0         0         0         0         0         
1      712       736       31314     131       131       0         0         0         0         0         
1      327       137       31315     299       286       0         0         0         0         0         
1      603       672       31315     189       189       0         0         0         0         0         
1      733       624       31315     131       189       0         0         0         0         0         
1      701       837       31315     290       290       0         0         0         0         0         
2      632       575       31315     189       189       0         0         0         0         0         
1      909       606       31315     290       189       0         0         0         0         0         
3      716       116       31315     189       9         0         0         0         0         0         
3      716       116       31315     189       9         0         0         0         0         0         
2      338       581       31316     277       189       0         0         0         0         0         
3      338       581       31316     277       189       0         0         0         0         0         
1      814       782       31316     290       291       0         0         0         0         0         
1      597       669       31316     131       280       0         0         0         0         0         
1      958       81        31316     291       98        0         0         0         0         0         
1      1069      693       31316     291       280       0         0         0         0         0         
1      1148      212       31317     291       266       0         0         0         0         0         
3      1168      915       31317     291       291       0         0         0         0         0         
1      858       946       31317     290       290       0         0         0         0         0         
1      679       748       31317     290       290       0         0         0         0         0         
1      509       651       31317     199       189       0         0         0         0         0         
1      760       627       31317     291       189       0         0         0         0         0         
1      603       716       31317     189       189       0         0         0         0         0         
1      866       1026      31318     290       291       0         0         0         0         0         
1      607       488       31318     189       199       0         0         0         0         0         
1      1001      415       31318     291       100       0         0         0         0         0         
2      171       408       31318     286       299       0         0         0         0         0         
1      948       599       31318     290       280       0         0         0         0         0         
1      597       484       31318     131       189       0         0         0         0         0         
1      304       736       31318     299       131       0         0         0         0         0         
1      505       804       31318     52        291       0         0         0         0         0         
1      304       306       31318     299       299       0         0         0         0         0         
1      535       577       31319     189       189       0         0         0         0         0         
1      1132      851       31319     291       291       0         0         0         0         0         
1      304       116       31319     299       9         0         0         0         0         0         
1      549       624       31319     52        189       0         0         0         0         0         
